c description: Random 2-CNF over 15 variables and 45 clauses
c generator: CNFgen (0.9.0)
c copyright: (C) 2012-2020 Massimo Lauria <massimo.lauria@uniroma1.it>
c url: https://massimolauria.net/cnfgen
c
p cnf 15 45
7 14 0
-6 -14 0
-3 -13 0
4 -5 0
-6 -9 0
-2 -11 0
2 -12 0
14 15 0
2 -11 0
3 14 0
-7 -11 0
-4 14 0
-2 5 0
3 -15 0
-1 -15 0
6 9 0
1 -6 0
1 -13 0
-12 -14 0
4 14 0
-7 8 0
2 -14 0
-7 -10 0
-1 -2 0
3 5 0
8 9 0
7 -9 0
6 -7 0
13 -15 0
11 13 0
7 8 0
-4 -11 0
6 -13 0
7 -13 0
14 -15 0
-11 -15 0
1 11 0
7 -8 0
7 -14 0
-2 12 0
-2 7 0
-13 14 0
3 9 0
3 12 0
3 -4 0